%-----------------------------------------------------------------------------%
% Dual Arm Multi Capacity Multi Tool Scheduling / Routing
% Assembly Configuration
% Auto Generated by python script, authored by Johan Ludde Wessen 
%-----------------------------------------------------------------------------%


task_durations = [|28, 30, 24, 27, 32, 26, 29, 24, 27, 40, 50, 47, 62, 54, 53, 51, 53, 53, 27, 35, 26,  6,  5,  5,  5,  6,  7,  4,  4
                  |30, 26, 24, 26, 26, 29, 25, 29, 28, 40, 48, 48, 57, 60, 50, 47, 60, 49, 31, 30, 32,  6,  5,  5,  6,  8,  8,  6,  5
                  |];


TRAY_TASKS = 1..7;
CAMERA_TASKS = 19..21;
OUTPUT_TASKS = { 18 };


empty_gripper_tasks = 22..29;


gripper_pick_tasks_orders = [|1, 10, -1
|2, 11, -1
|3, 12, -1
|4, 13, -1
|8, 17, -1
|9, 18, -1
|];

suction_pick_tasks_orders = [|5, 19, 14, -1
|6, 20, 15, -1
|7, 21, 16, -1
|];

fixture_task_orders = [|10, 22, 14, 26, 11, 23, 8, -1, -1, -1, -1, -1
|15, 27, 12, 24, 16, 28, 13, 25, 17, 29, 9, -1
|];

